c Sudoku solution
p cnf 729 0
126 0
163 0
182 0
213 0
249 0
284 0
314 0
375 0
398 0
383 0
512 0
553 0
636 0
662 0
673 0
691 0
727 0
744 0
154 0
624 0
756 0
816 0
829 0
339 0
938 0
834 0
942 0
843 0
732 0
923 0
793 0
433 0
967 0
999 0
974 0
986 0
769 0
197 0
296 0
271 0
179 0
237 0
778 0
589 0
547 0
576 0
357 0
252 0
322 0
648 0
528 0
488 0
118 0
131 0
225 0
145 0
268 0
421 0
535 0
459 0
655 0
446 0
464 0
561 0
594 0
495 0
472 0
687 0
417 0
619 0
341 0
366 0
951 0
858 0
865 0
881 0
785 0
892 0
877 0
711 0
915 0
